0 91 103
1 110 112
2 116 116
3 101 119
4 121 122
5 123 123
6 100 122
7 57 122
8 118 123
9 102 123
10 122 123
11 94 125
12 118 122
13 117 120
14 117 120
15 98 117
16 108 115
17 67 114
18 108 113
19 111 112
20 112 113
21 109 110
22 78 107
23 102 108
24 78 106
25 96 104
26 101 101
27 98 101
28 67 100
29 98 99
30 88 98
31 93 94
32 77 91
33 90 93
34 68 94
35 61 94
36 78 91
37 71 87
38 85 85
39 85 87
40 75 85
41 79 86
42 75 82
43 78 80
44 79 80
45 69 76
46 72 75
47 67 75
48 78 78
49 64 76
50 43 71
51 31 69
52 60 65
53 58 65
54 57 62
55 60 64
56 46 63
57 60 63
58 47 60
59 57 58
60 40 59
61 57 59
62 57 59
63 56 57
64 55 55
65 53 55
66 47 52
67 51 52
68 41 52
69 53 53
70 38 54
71 53 54
72 51 51
73 46 51
74 46 51
75 42 52
76 48 50
77 47 51
78 45 48
79 44 50
80 47 46
81 37 38
82 39 40
83 36 40
84 35 38
85 38 38
86 35 39
87 39 40
88 30 39
89 32 39
90 40 41
91 38 38
92 34 37
93 21 36
94 21 35
95 20 33
96 31 31
97 23 30
98 26 29
99 12 27
100 22 26
101 21 22
102 16 19
103 15 16
104 11 14
105 15 15
106 6 15
107 11 12
108 10 10
109 8 10
110 6 8
111 4 6
112 2 4
113 1 2
114 1 2

